benchmarks/ising_models/2DLattices/SqrLattices/J_unif_-1,1/10x10_square_lattice_unif_frust.wcnf
p wcnf 280 720
w -2 0.793401 0
w 2 1.260397 0
w -3 0.395180 0
w 3 2.530489 0
w -5 1.507602 0
w 5 0.663305 0
w -6 2.667463 0
w 6 0.374888 0
w -8 1.429817 0
w 8 0.699390 0
w -9 0.915253 0
w 9 1.092594 0
w -11 0.833318 0
w 11 1.200022 0
w -12 1.936235 0
w 12 0.516466 0
w -14 0.410343 0
w 14 2.436988 0
w -15 0.481350 0
w 15 2.077490 0
w -17 2.125901 0
w 17 0.470389 0
w -18 0.633573 0
w 18 1.578351 0
w -20 0.501862 0
w 20 1.992580 0
w -21 2.034082 0
w 21 0.491622 0
w -23 2.405764 0
w 23 0.415668 0
w -24 0.440830 0
w 24 2.268449 0
w -26 1.300842 0
w 26 0.768733 0
w -27 0.960704 0
w 27 1.040903 0
w -29 0.749805 0
w 29 1.333681 0
w -31 0.791882 0
w 31 1.262814 0
w -32 0.429634 0
w 32 2.327562 0
w -34 0.514996 0
w 34 1.941761 0
w -35 1.919802 0
w 35 0.520887 0
w -37 1.275699 0
w 37 0.783884 0
w -38 2.226422 0
w 38 0.449151 0
w -40 0.491270 0
w 40 2.035540 0
w -41 0.974203 0
w 41 1.026480 0
w -43 1.042078 0
w 43 0.959621 0
w -44 0.886684 0
w 44 1.127798 0
w -46 0.669713 0
w 46 1.493176 0
w -47 0.603899 0
w 47 1.655906 0
w -49 1.495007 0
w 49 0.668893 0
w -50 1.947449 0
w 50 0.513492 0
w -52 1.994899 0
w 52 0.501278 0
w -53 0.731655 0
w 53 1.366765 0
w -55 1.306238 0
w 55 0.765557 0
w -56 0.539068 0
w 56 1.855054 0
w -58 2.056461 0
w 58 0.486272 0
w -60 0.370896 0
w 60 2.696171 0
w -61 0.477373 0
w 61 2.094797 0
w -63 1.365057 0
w 63 0.732570 0
w -64 1.640308 0
w 64 0.609642 0
w -66 1.028133 0
w 66 0.972637 0
w -67 1.136705 0
w 67 0.879736 0
w -69 0.449009 0
w 69 2.227129 0
w -70 0.419735 0
w 70 2.382458 0
w -72 0.691147 0
w 72 1.446870 0
w -73 1.064822 0
w 73 0.939124 0
w -75 1.325265 0
w 75 0.754566 0
w -76 0.700565 0
w 76 1.427418 0
w -78 2.066290 0
w 78 0.483959 0
w -79 0.703679 0
w 79 1.421103 0
w -81 1.233737 0
w 81 0.810545 0
w -82 0.768771 0
w 82 1.300777 0
w -84 1.605950 0
w 84 0.622684 0
w -85 2.449136 0
w 85 0.408307 0
w -87 1.439381 0
w 87 0.694743 0
w -89 0.571377 0
w 89 1.750157 0
w -90 2.310568 0
w 90 0.432794 0
w -92 0.712722 0
w 92 1.403071 0
w -93 0.754174 0
w 93 1.325953 0
w -95 0.874807 0
w 95 1.143109 0
w -96 0.625854 0
w 96 1.597818 0
w -98 2.522114 0
w 98 0.396493 0
w -99 2.286280 0
w 99 0.437392 0
w -101 0.935156 0
w 101 1.069340 0
w -102 0.396199 0
w 102 2.523986 0
w -104 2.592886 0
w 104 0.385671 0
w -105 0.530633 0
w 105 1.884541 0
w -107 0.516959 0
w 107 1.934388 0
w -108 0.597601 0
w 108 1.673358 0
w -110 1.070605 0
w 110 0.934051 0
w -111 2.578895 0
w 111 0.387763 0
w -113 0.490292 0
w 113 2.039600 0
w -114 0.458745 0
w 114 2.179859 0
w -116 0.750725 0
w 116 1.332045 0
w -118 1.407115 0
w 118 0.710674 0
w -119 1.961459 0
w 119 0.509825 0
w -121 1.137598 0
w 121 0.879045 0
w -122 0.478582 0
w 122 2.089506 0
w -124 0.423811 0
w 124 2.359543 0
w -125 2.613253 0
w 125 0.382665 0
w -127 2.194649 0
w 127 0.455654 0
w -128 1.340512 0
w 128 0.745984 0
w -130 0.419178 0
w 130 2.385619 0
w -131 0.615991 0
w 131 1.623400 0
w -133 2.584015 0
w 133 0.386995 0
w -134 0.683461 0
w 134 1.463141 0
w -136 2.408644 0
w 136 0.415171 0
w -137 0.447777 0
w 137 2.233254 0
w -139 1.114219 0
w 139 0.897490 0
w -140 1.111643 0
w 140 0.899569 0
w -142 2.090706 0
w 142 0.478307 0
w -143 0.862893 0
w 143 1.158892 0
w -145 1.898025 0
w 145 0.526863 0
w -147 2.248093 0
w 147 0.444822 0
w -148 2.131864 0
w 148 0.469073 0
w -150 0.486956 0
w 150 2.053572 0
w -151 0.592596 0
w 151 1.687489 0
w -153 0.619631 0
w 153 1.613863 0
w -154 1.712371 0
w 154 0.583985 0
w -156 1.624698 0
w 156 0.615499 0
w -157 2.427625 0
w 157 0.411925 0
w -159 1.245517 0
w 159 0.802880 0
w -160 1.958383 0
w 160 0.510625 0
w -162 1.063538 0
w 162 0.940258 0
w -163 0.585959 0
w 163 1.706603 0
w -165 1.816805 0
w 165 0.550417 0
w -166 0.704496 0
w 166 1.419455 0
w -168 1.893926 0
w 168 0.528004 0
w -169 0.705963 0
w 169 1.416505 0
w -171 1.038053 0
w 171 0.963342 0
w -172 2.456004 0
w 172 0.407165 0
w -174 1.205694 0
w 174 0.829398 0
w -176 0.668401 0
w 176 1.496109 0
w -177 0.963803 0
w 177 1.037557 0
w -179 1.051262 0
w 179 0.951238 0
w -180 2.051497 0
w 180 0.487449 0
w -182 2.221688 0
w 182 0.450108 0
w -183 1.262416 0
w 183 0.792132 0
w -185 2.553216 0
w 185 0.391663 0
w -186 0.499957 0
w 186 2.000173 0
w -188 1.183653 0
w 188 0.844842 0
w -189 0.385247 0
w 189 2.595738 0
w -191 0.412287 0
w 191 2.425496 0
w -192 0.469588 0
w 192 2.129527 0
w -194 0.441183 0
w 194 2.266631 0
w -195 1.640710 0
w 195 0.609492 0
w -197 1.157649 0
w 197 0.863820 0
w -198 1.221301 0
w 198 0.818799 0
w -200 1.541006 0
w 200 0.648927 0
w -201 1.900205 0
w 201 0.526259 0
w -203 2.296446 0
w 203 0.435456 0
w -205 0.803664 0
w 205 1.244301 0
w -206 1.893528 0
w 206 0.528115 0
w -208 1.723585 0
w 208 0.580186 0
w -209 0.440359 0
w 209 2.270876 0
w -211 0.474374 0
w 211 2.108040 0
w -212 0.851448 0
w 212 1.174470 0
w -214 0.656799 0
w 214 1.522535 0
w -215 0.790699 0
w 215 1.264704 0
w -217 1.945321 0
w 217 0.514054 0
w -218 0.676301 0
w 218 1.478631 0
w -220 0.617950 0
w 220 1.618255 0
w -221 1.101918 0
w 221 0.907509 0
w -223 0.438898 0
w 223 2.278434 0
w -224 1.183712 0
w 224 0.844800 0
w -226 1.630402 0
w 226 0.613346 0
w -227 0.502394 0
w 227 1.990468 0
w -229 0.636550 0
w 229 1.570969 0
w -230 1.318061 0
w 230 0.758690 0
w -232 1.684490 0
w 232 0.593651 0
w -234 1.612096 0
w 234 0.620311 0
w -235 0.901277 0
w 235 1.109537 0
w -237 0.498327 0
w 237 2.006715 0
w -238 1.180031 0
w 238 0.847435 0
w -240 0.395351 0
w 240 2.529396 0
w -241 0.716462 0
w 241 1.395748 0
w -243 0.932296 0
w 243 1.072621 0
w -244 0.971581 0
w 244 1.029251 0
w -246 0.872642 0
w 246 1.145945 0
w -247 1.298148 0
w 247 0.770328 0
w -249 0.500636 0
w 249 1.997458 0
w -250 0.378268 0
w 250 2.643627 0
w -252 1.000935 0
w 252 0.999065 0
w -253 0.872656 0
w 253 1.145926 0
w -255 0.705858 0
w 255 1.416716 0
w -256 0.463997 0
w 256 2.155187 0
w -258 0.800716 0
w 258 1.248882 0
w -259 1.038219 0
w 259 0.963188 0
w -261 2.477464 0
w 261 0.403639 0
w -263 0.400894 0
w 263 2.494425 0
w -265 0.394112 0
w 265 2.537349 0
w -267 2.474438 0
w 267 0.404132 0
w -269 0.515765 0
w 269 1.938867 0
w -271 0.789388 0
w 271 1.266804 0
w -273 0.730387 0
w 273 1.369138 0
w -275 1.391253 0
w 275 0.718776 0
w -277 0.754679 0
w 277 1.325066 0
w -279 1.445232 0
w 279 0.691930 0
2 1 4 0
2 -1 -4 0
-2 1 -4 0
-2 -1 4 0
3 1 30 0
3 -1 -30 0
-3 1 -30 0
-3 -1 30 0
5 4 7 0
5 -4 -7 0
-5 4 -7 0
-5 -4 7 0
6 4 33 0
6 -4 -33 0
-6 4 -33 0
-6 -4 33 0
8 7 10 0
8 -7 -10 0
-8 7 -10 0
-8 -7 10 0
9 7 36 0
9 -7 -36 0
-9 7 -36 0
-9 -7 36 0
11 10 13 0
11 -10 -13 0
-11 10 -13 0
-11 -10 13 0
12 10 39 0
12 -10 -39 0
-12 10 -39 0
-12 -10 39 0
14 13 16 0
14 -13 -16 0
-14 13 -16 0
-14 -13 16 0
15 13 42 0
15 -13 -42 0
-15 13 -42 0
-15 -13 42 0
17 16 19 0
17 -16 -19 0
-17 16 -19 0
-17 -16 19 0
18 16 45 0
18 -16 -45 0
-18 16 -45 0
-18 -16 45 0
20 19 22 0
20 -19 -22 0
-20 19 -22 0
-20 -19 22 0
21 19 48 0
21 -19 -48 0
-21 19 -48 0
-21 -19 48 0
23 22 25 0
23 -22 -25 0
-23 22 -25 0
-23 -22 25 0
24 22 51 0
24 -22 -51 0
-24 22 -51 0
-24 -22 51 0
26 25 28 0
26 -25 -28 0
-26 25 -28 0
-26 -25 28 0
27 25 54 0
27 -25 -54 0
-27 25 -54 0
-27 -25 54 0
29 28 57 0
29 -28 -57 0
-29 28 -57 0
-29 -28 57 0
31 30 33 0
31 -30 -33 0
-31 30 -33 0
-31 -30 33 0
32 30 59 0
32 -30 -59 0
-32 30 -59 0
-32 -30 59 0
34 33 36 0
34 -33 -36 0
-34 33 -36 0
-34 -33 36 0
35 33 62 0
35 -33 -62 0
-35 33 -62 0
-35 -33 62 0
37 36 39 0
37 -36 -39 0
-37 36 -39 0
-37 -36 39 0
38 36 65 0
38 -36 -65 0
-38 36 -65 0
-38 -36 65 0
40 39 42 0
40 -39 -42 0
-40 39 -42 0
-40 -39 42 0
41 39 68 0
41 -39 -68 0
-41 39 -68 0
-41 -39 68 0
43 42 45 0
43 -42 -45 0
-43 42 -45 0
-43 -42 45 0
44 42 71 0
44 -42 -71 0
-44 42 -71 0
-44 -42 71 0
46 45 48 0
46 -45 -48 0
-46 45 -48 0
-46 -45 48 0
47 45 74 0
47 -45 -74 0
-47 45 -74 0
-47 -45 74 0
49 48 51 0
49 -48 -51 0
-49 48 -51 0
-49 -48 51 0
50 48 77 0
50 -48 -77 0
-50 48 -77 0
-50 -48 77 0
52 51 54 0
52 -51 -54 0
-52 51 -54 0
-52 -51 54 0
53 51 80 0
53 -51 -80 0
-53 51 -80 0
-53 -51 80 0
55 54 57 0
55 -54 -57 0
-55 54 -57 0
-55 -54 57 0
56 54 83 0
56 -54 -83 0
-56 54 -83 0
-56 -54 83 0
58 57 86 0
58 -57 -86 0
-58 57 -86 0
-58 -57 86 0
60 59 62 0
60 -59 -62 0
-60 59 -62 0
-60 -59 62 0
61 59 88 0
61 -59 -88 0
-61 59 -88 0
-61 -59 88 0
63 62 65 0
63 -62 -65 0
-63 62 -65 0
-63 -62 65 0
64 62 91 0
64 -62 -91 0
-64 62 -91 0
-64 -62 91 0
66 65 68 0
66 -65 -68 0
-66 65 -68 0
-66 -65 68 0
67 65 94 0
67 -65 -94 0
-67 65 -94 0
-67 -65 94 0
69 68 71 0
69 -68 -71 0
-69 68 -71 0
-69 -68 71 0
70 68 97 0
70 -68 -97 0
-70 68 -97 0
-70 -68 97 0
72 71 74 0
72 -71 -74 0
-72 71 -74 0
-72 -71 74 0
73 71 100 0
73 -71 -100 0
-73 71 -100 0
-73 -71 100 0
75 74 77 0
75 -74 -77 0
-75 74 -77 0
-75 -74 77 0
76 74 103 0
76 -74 -103 0
-76 74 -103 0
-76 -74 103 0
78 77 80 0
78 -77 -80 0
-78 77 -80 0
-78 -77 80 0
79 77 106 0
79 -77 -106 0
-79 77 -106 0
-79 -77 106 0
81 80 83 0
81 -80 -83 0
-81 80 -83 0
-81 -80 83 0
82 80 109 0
82 -80 -109 0
-82 80 -109 0
-82 -80 109 0
84 83 86 0
84 -83 -86 0
-84 83 -86 0
-84 -83 86 0
85 83 112 0
85 -83 -112 0
-85 83 -112 0
-85 -83 112 0
87 86 115 0
87 -86 -115 0
-87 86 -115 0
-87 -86 115 0
89 88 91 0
89 -88 -91 0
-89 88 -91 0
-89 -88 91 0
90 88 117 0
90 -88 -117 0
-90 88 -117 0
-90 -88 117 0
92 91 94 0
92 -91 -94 0
-92 91 -94 0
-92 -91 94 0
93 91 120 0
93 -91 -120 0
-93 91 -120 0
-93 -91 120 0
95 94 97 0
95 -94 -97 0
-95 94 -97 0
-95 -94 97 0
96 94 123 0
96 -94 -123 0
-96 94 -123 0
-96 -94 123 0
98 97 100 0
98 -97 -100 0
-98 97 -100 0
-98 -97 100 0
99 97 126 0
99 -97 -126 0
-99 97 -126 0
-99 -97 126 0
101 100 103 0
101 -100 -103 0
-101 100 -103 0
-101 -100 103 0
102 100 129 0
102 -100 -129 0
-102 100 -129 0
-102 -100 129 0
104 103 106 0
104 -103 -106 0
-104 103 -106 0
-104 -103 106 0
105 103 132 0
105 -103 -132 0
-105 103 -132 0
-105 -103 132 0
107 106 109 0
107 -106 -109 0
-107 106 -109 0
-107 -106 109 0
108 106 135 0
108 -106 -135 0
-108 106 -135 0
-108 -106 135 0
110 109 112 0
110 -109 -112 0
-110 109 -112 0
-110 -109 112 0
111 109 138 0
111 -109 -138 0
-111 109 -138 0
-111 -109 138 0
113 112 115 0
113 -112 -115 0
-113 112 -115 0
-113 -112 115 0
114 112 141 0
114 -112 -141 0
-114 112 -141 0
-114 -112 141 0
116 115 144 0
116 -115 -144 0
-116 115 -144 0
-116 -115 144 0
118 117 120 0
118 -117 -120 0
-118 117 -120 0
-118 -117 120 0
119 117 146 0
119 -117 -146 0
-119 117 -146 0
-119 -117 146 0
121 120 123 0
121 -120 -123 0
-121 120 -123 0
-121 -120 123 0
122 120 149 0
122 -120 -149 0
-122 120 -149 0
-122 -120 149 0
124 123 126 0
124 -123 -126 0
-124 123 -126 0
-124 -123 126 0
125 123 152 0
125 -123 -152 0
-125 123 -152 0
-125 -123 152 0
127 126 129 0
127 -126 -129 0
-127 126 -129 0
-127 -126 129 0
128 126 155 0
128 -126 -155 0
-128 126 -155 0
-128 -126 155 0
130 129 132 0
130 -129 -132 0
-130 129 -132 0
-130 -129 132 0
131 129 158 0
131 -129 -158 0
-131 129 -158 0
-131 -129 158 0
133 132 135 0
133 -132 -135 0
-133 132 -135 0
-133 -132 135 0
134 132 161 0
134 -132 -161 0
-134 132 -161 0
-134 -132 161 0
136 135 138 0
136 -135 -138 0
-136 135 -138 0
-136 -135 138 0
137 135 164 0
137 -135 -164 0
-137 135 -164 0
-137 -135 164 0
139 138 141 0
139 -138 -141 0
-139 138 -141 0
-139 -138 141 0
140 138 167 0
140 -138 -167 0
-140 138 -167 0
-140 -138 167 0
142 141 144 0
142 -141 -144 0
-142 141 -144 0
-142 -141 144 0
143 141 170 0
143 -141 -170 0
-143 141 -170 0
-143 -141 170 0
145 144 173 0
145 -144 -173 0
-145 144 -173 0
-145 -144 173 0
147 146 149 0
147 -146 -149 0
-147 146 -149 0
-147 -146 149 0
148 146 175 0
148 -146 -175 0
-148 146 -175 0
-148 -146 175 0
150 149 152 0
150 -149 -152 0
-150 149 -152 0
-150 -149 152 0
151 149 178 0
151 -149 -178 0
-151 149 -178 0
-151 -149 178 0
153 152 155 0
153 -152 -155 0
-153 152 -155 0
-153 -152 155 0
154 152 181 0
154 -152 -181 0
-154 152 -181 0
-154 -152 181 0
156 155 158 0
156 -155 -158 0
-156 155 -158 0
-156 -155 158 0
157 155 184 0
157 -155 -184 0
-157 155 -184 0
-157 -155 184 0
159 158 161 0
159 -158 -161 0
-159 158 -161 0
-159 -158 161 0
160 158 187 0
160 -158 -187 0
-160 158 -187 0
-160 -158 187 0
162 161 164 0
162 -161 -164 0
-162 161 -164 0
-162 -161 164 0
163 161 190 0
163 -161 -190 0
-163 161 -190 0
-163 -161 190 0
165 164 167 0
165 -164 -167 0
-165 164 -167 0
-165 -164 167 0
166 164 193 0
166 -164 -193 0
-166 164 -193 0
-166 -164 193 0
168 167 170 0
168 -167 -170 0
-168 167 -170 0
-168 -167 170 0
169 167 196 0
169 -167 -196 0
-169 167 -196 0
-169 -167 196 0
171 170 173 0
171 -170 -173 0
-171 170 -173 0
-171 -170 173 0
172 170 199 0
172 -170 -199 0
-172 170 -199 0
-172 -170 199 0
174 173 202 0
174 -173 -202 0
-174 173 -202 0
-174 -173 202 0
176 175 178 0
176 -175 -178 0
-176 175 -178 0
-176 -175 178 0
177 175 204 0
177 -175 -204 0
-177 175 -204 0
-177 -175 204 0
179 178 181 0
179 -178 -181 0
-179 178 -181 0
-179 -178 181 0
180 178 207 0
180 -178 -207 0
-180 178 -207 0
-180 -178 207 0
182 181 184 0
182 -181 -184 0
-182 181 -184 0
-182 -181 184 0
183 181 210 0
183 -181 -210 0
-183 181 -210 0
-183 -181 210 0
185 184 187 0
185 -184 -187 0
-185 184 -187 0
-185 -184 187 0
186 184 213 0
186 -184 -213 0
-186 184 -213 0
-186 -184 213 0
188 187 190 0
188 -187 -190 0
-188 187 -190 0
-188 -187 190 0
189 187 216 0
189 -187 -216 0
-189 187 -216 0
-189 -187 216 0
191 190 193 0
191 -190 -193 0
-191 190 -193 0
-191 -190 193 0
192 190 219 0
192 -190 -219 0
-192 190 -219 0
-192 -190 219 0
194 193 196 0
194 -193 -196 0
-194 193 -196 0
-194 -193 196 0
195 193 222 0
195 -193 -222 0
-195 193 -222 0
-195 -193 222 0
197 196 199 0
197 -196 -199 0
-197 196 -199 0
-197 -196 199 0
198 196 225 0
198 -196 -225 0
-198 196 -225 0
-198 -196 225 0
200 199 202 0
200 -199 -202 0
-200 199 -202 0
-200 -199 202 0
201 199 228 0
201 -199 -228 0
-201 199 -228 0
-201 -199 228 0
203 202 231 0
203 -202 -231 0
-203 202 -231 0
-203 -202 231 0
205 204 207 0
205 -204 -207 0
-205 204 -207 0
-205 -204 207 0
206 204 233 0
206 -204 -233 0
-206 204 -233 0
-206 -204 233 0
208 207 210 0
208 -207 -210 0
-208 207 -210 0
-208 -207 210 0
209 207 236 0
209 -207 -236 0
-209 207 -236 0
-209 -207 236 0
211 210 213 0
211 -210 -213 0
-211 210 -213 0
-211 -210 213 0
212 210 239 0
212 -210 -239 0
-212 210 -239 0
-212 -210 239 0
214 213 216 0
214 -213 -216 0
-214 213 -216 0
-214 -213 216 0
215 213 242 0
215 -213 -242 0
-215 213 -242 0
-215 -213 242 0
217 216 219 0
217 -216 -219 0
-217 216 -219 0
-217 -216 219 0
218 216 245 0
218 -216 -245 0
-218 216 -245 0
-218 -216 245 0
220 219 222 0
220 -219 -222 0
-220 219 -222 0
-220 -219 222 0
221 219 248 0
221 -219 -248 0
-221 219 -248 0
-221 -219 248 0
223 222 225 0
223 -222 -225 0
-223 222 -225 0
-223 -222 225 0
224 222 251 0
224 -222 -251 0
-224 222 -251 0
-224 -222 251 0
226 225 228 0
226 -225 -228 0
-226 225 -228 0
-226 -225 228 0
227 225 254 0
227 -225 -254 0
-227 225 -254 0
-227 -225 254 0
229 228 231 0
229 -228 -231 0
-229 228 -231 0
-229 -228 231 0
230 228 257 0
230 -228 -257 0
-230 228 -257 0
-230 -228 257 0
232 231 260 0
232 -231 -260 0
-232 231 -260 0
-232 -231 260 0
234 233 236 0
234 -233 -236 0
-234 233 -236 0
-234 -233 236 0
235 233 262 0
235 -233 -262 0
-235 233 -262 0
-235 -233 262 0
237 236 239 0
237 -236 -239 0
-237 236 -239 0
-237 -236 239 0
238 236 264 0
238 -236 -264 0
-238 236 -264 0
-238 -236 264 0
240 239 242 0
240 -239 -242 0
-240 239 -242 0
-240 -239 242 0
241 239 266 0
241 -239 -266 0
-241 239 -266 0
-241 -239 266 0
243 242 245 0
243 -242 -245 0
-243 242 -245 0
-243 -242 245 0
244 242 268 0
244 -242 -268 0
-244 242 -268 0
-244 -242 268 0
246 245 248 0
246 -245 -248 0
-246 245 -248 0
-246 -245 248 0
247 245 270 0
247 -245 -270 0
-247 245 -270 0
-247 -245 270 0
249 248 251 0
249 -248 -251 0
-249 248 -251 0
-249 -248 251 0
250 248 272 0
250 -248 -272 0
-250 248 -272 0
-250 -248 272 0
252 251 254 0
252 -251 -254 0
-252 251 -254 0
-252 -251 254 0
253 251 274 0
253 -251 -274 0
-253 251 -274 0
-253 -251 274 0
255 254 257 0
255 -254 -257 0
-255 254 -257 0
-255 -254 257 0
256 254 276 0
256 -254 -276 0
-256 254 -276 0
-256 -254 276 0
258 257 260 0
258 -257 -260 0
-258 257 -260 0
-258 -257 260 0
259 257 278 0
259 -257 -278 0
-259 257 -278 0
-259 -257 278 0
261 260 280 0
261 -260 -280 0
-261 260 -280 0
-261 -260 280 0
263 262 264 0
263 -262 -264 0
-263 262 -264 0
-263 -262 264 0
265 264 266 0
265 -264 -266 0
-265 264 -266 0
-265 -264 266 0
267 266 268 0
267 -266 -268 0
-267 266 -268 0
-267 -266 268 0
269 268 270 0
269 -268 -270 0
-269 268 -270 0
-269 -268 270 0
271 270 272 0
271 -270 -272 0
-271 270 -272 0
-271 -270 272 0
273 272 274 0
273 -272 -274 0
-273 272 -274 0
-273 -272 274 0
275 274 276 0
275 -274 -276 0
-275 274 -276 0
-275 -274 276 0
277 276 278 0
277 -276 -278 0
-277 276 -278 0
-277 -276 278 0
279 278 280 0
279 -278 -280 0
-279 278 -280 0
-279 -278 280 0
