benchmarks/ising_models/2DLattices/SqrLattices/J_unif_-1,1/10x10_square_lattice_unif_frust
ISING
100
2 2 2 2 2 2 2 2 2 2 2 2 2 2 2 2 2 2 2 2 2 2 2 2 2 2 2 2 2 2 2 2 2 2 2 2 2 2 2 2 2 2 2 2 2 2 2 2 2 2 2 2 2 2 2 2 2 2 2 2 2 2 2 2 2 2 2 2 2 2 2 2 2 2 2 2 2 2 2 2 2 2 2 2 2 2 2 2 2 2 2 2 2 2 2 2 2 2 2 2
0 180 1.0 1
2 0 1
2 0 10
2 1 2
2 1 11
2 2 3
2 2 12
2 3 4
2 3 13
2 4 5
2 4 14
2 5 6
2 5 15
2 6 7
2 6 16
2 7 8
2 7 17
2 8 9
2 8 18
2 9 19
2 10 11
2 10 20
2 11 12
2 11 21
2 12 13
2 12 22
2 13 14
2 13 23
2 14 15
2 14 24
2 15 16
2 15 25
2 16 17
2 16 26
2 17 18
2 17 27
2 18 19
2 18 28
2 19 29
2 20 21
2 20 30
2 21 22
2 21 31
2 22 23
2 22 32
2 23 24
2 23 33
2 24 25
2 24 34
2 25 26
2 25 35
2 26 27
2 26 36
2 27 28
2 27 37
2 28 29
2 28 38
2 29 39
2 30 31
2 30 40
2 31 32
2 31 41
2 32 33
2 32 42
2 33 34
2 33 43
2 34 35
2 34 44
2 35 36
2 35 45
2 36 37
2 36 46
2 37 38
2 37 47
2 38 39
2 38 48
2 39 49
2 40 41
2 40 50
2 41 42
2 41 51
2 42 43
2 42 52
2 43 44
2 43 53
2 44 45
2 44 54
2 45 46
2 45 55
2 46 47
2 46 56
2 47 48
2 47 57
2 48 49
2 48 58
2 49 59
2 50 51
2 50 60
2 51 52
2 51 61
2 52 53
2 52 62
2 53 54
2 53 63
2 54 55
2 54 64
2 55 56
2 55 65
2 56 57
2 56 66
2 57 58
2 57 67
2 58 59
2 58 68
2 59 69
2 60 61
2 60 70
2 61 62
2 61 71
2 62 63
2 62 72
2 63 64
2 63 73
2 64 65
2 64 74
2 65 66
2 65 75
2 66 67
2 66 76
2 67 68
2 67 77
2 68 69
2 68 78
2 69 79
2 70 71
2 70 80
2 71 72
2 71 81
2 72 73
2 72 82
2 73 74
2 73 83
2 74 75
2 74 84
2 75 76
2 75 85
2 76 77
2 76 86
2 77 78
2 77 87
2 78 79
2 78 88
2 79 89
2 80 81
2 80 90
2 81 82
2 81 91
2 82 83
2 82 92
2 83 84
2 83 93
2 84 85
2 84 94
2 85 86
2 85 95
2 86 87
2 86 96
2 87 88
2 87 97
2 88 89
2 88 98
2 89 99
2 90 91
2 91 92
2 92 93
2 93 94
2 94 95
2 95 96
2 96 97
2 97 98
2 98 99

4
 0.2314267303594828 -0.2314267303594828
 -0.2314267303594828 0.2314267303594828
4
 0.9284127547885852 -0.9284127547885852
 -0.9284127547885852 0.9284127547885852
4
 -0.41052050140933805 0.41052050140933805
 0.41052050140933805 -0.41052050140933805
4
 -0.9811277281786808 0.9811277281786808
 0.9811277281786808 -0.9811277281786808
4
 -0.35754667748929236 0.35754667748929236
 0.35754667748929236 -0.35754667748929236
4
 0.08855459899461637 -0.08855459899461637
 -0.08855459899461637 0.08855459899461637
4
 0.1823402070623692 -0.1823402070623692
 -0.1823402070623692 0.1823402070623692
4
 -0.6607455688856456 0.6607455688856456
 0.6607455688856456 -0.6607455688856456
4
 0.8907629329049953 -0.8907629329049953
 -0.8907629329049953 0.8907629329049953
4
 0.7311605683965576 -0.7311605683965576
 -0.7311605683965576 0.7311605683965576
4
 -0.7541957752057198 0.7541957752057198
 0.7541957752057198 -0.7541957752057198
4
 0.45638037545999244 -0.45638037545999244
 -0.45638037545999244 0.45638037545999244
4
 0.6894304526415327 -0.6894304526415327
 -0.6894304526415327 0.6894304526415327
4
 -0.7100445574516814 0.7100445574516814
 0.7100445574516814 -0.7100445574516814
4
 -0.8778674398662167 0.8778674398662167
 0.8778674398662167 -0.8778674398662167
4
 0.8190961212746428 -0.8190961212746428
 -0.8190961212746428 0.8190961212746428
4
 -0.2630120443091799 0.2630120443091799
 0.2630120443091799 -0.2630120443091799
4
 0.04008842257952616 -0.04008842257952616
 -0.04008842257952616 0.04008842257952616
4
 0.28794253277971227 -0.28794253277971227
 -0.28794253277971227 0.28794253277971227
4
 0.2333428541323186 -0.2333428541323186
 -0.2333428541323186 0.2333428541323186
4
 0.8448211705035367 -0.8448211705035367
 -0.8448211705035367 0.8448211705035367
4
 0.6635952634804501 -0.6635952634804501
 -0.6635952634804501 0.6635952634804501
4
 -0.652222232682953 0.652222232682953
 0.652222232682953 -0.652222232682953
4
 -0.2434941034287541 0.2434941034287541
 0.2434941034287541 -0.2434941034287541
4
 -0.8003958466634418 0.8003958466634418
 0.8003958466634418 -0.8003958466634418
4
 0.7107610393923272 -0.7107610393923272
 -0.7107610393923272 0.7107610393923272
4
 0.026135855182251033 -0.026135855182251033
 -0.026135855182251033 0.026135855182251033
4
 -0.04121656720772715 0.04121656720772715
 0.04121656720772715 -0.04121656720772715
4
 0.12026680485385932 -0.12026680485385932
 -0.12026680485385932 0.12026680485385932
4
 0.40090561445890827 -0.40090561445890827
 -0.40090561445890827 0.40090561445890827
4
 0.5043483800722139 -0.5043483800722139
 -0.5043483800722139 0.5043483800722139
4
 -0.40213099691147036 0.40213099691147036
 0.40213099691147036 -0.40213099691147036
4
 -0.6665200735420609 0.6665200735420609
 0.6665200735420609 -0.6665200735420609
4
 -0.6905934474591238 0.6905934474591238
 0.6905934474591238 -0.6905934474591238
4
 0.3124468180693669 -0.3124468180693669
 -0.3124468180693669 0.3124468180693669
4
 -0.26715157814213564 0.26715157814213564
 0.26715157814213564 -0.26715157814213564
4
 0.6179136307310071 -0.6179136307310071
 -0.6179136307310071 0.6179136307310071
4
 -0.7209866947763297 0.7209866947763297
 0.7209866947763297 -0.7209866947763297
4
 0.9918325455344876 -0.9918325455344876
 -0.9918325455344876 0.9918325455344876
4
 0.7394566746313549 -0.7394566746313549
 -0.7394566746313549 0.7394566746313549
4
 -0.3111964652607919 0.3111964652607919
 0.3111964652607919 -0.3111964652607919
4
 -0.4948839793718509 0.4948839793718509
 0.4948839793718509 -0.4948839793718509
4
 -0.02774417270765639 0.02774417270765639
 0.02774417270765639 -0.02774417270765639
4
 -0.1281337122693329 0.1281337122693329
 0.1281337122693329 -0.1281337122693329
4
 0.8007133706290983 -0.8007133706290983
 -0.8007133706290983 0.8007133706290983
4
 0.868132596933513 -0.868132596933513
 -0.868132596933513 0.868132596933513
4
 0.369402501705159 -0.369402501705159
 -0.369402501705159 0.369402501705159
4
 -0.06280727326034397 0.06280727326034397
 0.06280727326034397 -0.06280727326034397
4
 -0.2816121121596942 0.2816121121596942
 0.2816121121596942 -0.2816121121596942
4
 0.3558675646077951 -0.3558675646077951
 -0.3558675646077951 0.3558675646077951
4
 -0.7257547609711967 0.7257547609711967
 0.7257547609711967 -0.7257547609711967
4
 0.3514330184297014 -0.3514330184297014
 -0.3514330184297014 0.3514330184297014
4
 -0.21004790749518265 0.21004790749518265
 0.21004790749518265 -0.21004790749518265
4
 0.2629620366576353 -0.2629620366576353
 -0.2629620366576353 0.2629620366576353
4
 -0.47371543347841594 0.47371543347841594
 0.47371543347841594 -0.47371543347841594
4
 -0.8957352543105044 0.8957352543105044
 0.8957352543105044 -0.8957352543105044
4
 -0.36421286733054825 0.36421286733054825
 0.36421286733054825 -0.36421286733054825
4
 0.5597056865488812 -0.5597056865488812
 -0.5597056865488812 0.5597056865488812
4
 -0.8374934263097729 0.8374934263097729
 0.8374934263097729 -0.8374934263097729
4
 0.33866328576840976 -0.33866328576840976
 -0.33866328576840976 0.33866328576840976
4
 0.28213174828518683 -0.28213174828518683
 -0.28213174828518683 0.28213174828518683
4
 0.13375167452962522 -0.13375167452962522
 -0.13375167452962522 0.13375167452962522
4
 0.4686388627966742 -0.4686388627966742
 -0.4686388627966742 0.4686388627966742
4
 -0.925097578154868 0.925097578154868
 0.925097578154868 -0.925097578154868
4
 -0.8269260408497368 0.8269260408497368
 0.8269260408497368 -0.8269260408497368
4
 0.06704178134345784 -0.06704178134345784
 -0.06704178134345784 0.06704178134345784
4
 0.9258393405534804 -0.9258393405534804
 -0.9258393405534804 0.9258393405534804
4
 -0.9527715608881258 0.9527715608881258
 0.9527715608881258 -0.9527715608881258
4
 0.6336844622017297 -0.6336844622017297
 -0.6336844622017297 0.6336844622017297
4
 0.659790808037813 -0.659790808037813
 -0.659790808037813 0.659790808037813
4
 0.5148325931931959 -0.5148325931931959
 -0.5148325931931959 0.5148325931931959
4
 -0.0682241288215979 0.0682241288215979
 0.0682241288215979 -0.0682241288215979
4
 -0.9473609050792438 0.9473609050792438
 0.9473609050792438 -0.9473609050792438
4
 0.7127536147850635 -0.7127536147850635
 -0.7127536147850635 0.7127536147850635
4
 0.7792601592759374 -0.7792601592759374
 -0.7792601592759374 0.7792601592759374
4
 0.28671568729045926 -0.28671568729045926
 -0.28671568729045926 0.28671568729045926
4
 -0.34154166851334233 0.34154166851334233
 0.34154166851334233 -0.34154166851334233
4
 -0.6736884738632944 0.6736884738632944
 0.6736884738632944 -0.6736884738632944
4
 -0.1289190448615567 0.1289190448615567
 0.1289190448615567 -0.1289190448615567
4
 0.7369278215478157 -0.7369278215478157
 -0.7369278215478157 0.7369278215478157
4
 0.8584677692288598 -0.8584677692288598
 -0.8584677692288598 0.8584677692288598
4
 -0.9605959722157111 0.9605959722157111
 0.9605959722157111 -0.9605959722157111
4
 -0.7860221272798114 0.7860221272798114
 0.7860221272798114 -0.7860221272798114
4
 -0.2930513588184731 0.2930513588184731
 0.2930513588184731 -0.2930513588184731
4
 0.8694586839985119 -0.8694586839985119
 -0.8694586839985119 0.8694586839985119
4
 0.4845228684794578 -0.4845228684794578
 -0.4845228684794578 0.4845228684794578
4
 -0.9493445279094874 0.9493445279094874
 0.9493445279094874 -0.9493445279094874
4
 0.3805857885821231 -0.3805857885821231
 -0.3805857885821231 0.3805857885821231
4
 -0.8790638030967493 0.8790638030967493
 0.8790638030967493 -0.8790638030967493
4
 0.803459791916608 -0.803459791916608
 -0.803459791916608 0.803459791916608
4
 -0.10815339053512973 0.10815339053512973
 0.10815339053512973 -0.10815339053512973
4
 -0.10583927262022286 0.10583927262022286
 0.10583927262022286 -0.10583927262022286
4
 -0.7375019869414843 0.7375019869414843
 0.7375019869414843 -0.7375019869414843
4
 0.14746407244383053 -0.14746407244383053
 -0.14746407244383053 0.14746407244383053
4
 -0.6408138914410959 0.6408138914410959
 0.6408138914410959 -0.6408138914410959
4
 -0.8100821966613487 0.8100821966613487
 0.8100821966613487 -0.8100821966613487
4
 -0.7569965530121978 0.7569965530121978
 0.7569965530121978 -0.7569965530121978
4
 0.7195807854418748 -0.7195807854418748
 -0.7195807854418748 0.7195807854418748
4
 0.5232416898827543 -0.5232416898827543
 -0.5232416898827543 0.5232416898827543
4
 0.47863058725947494 -0.47863058725947494
 -0.47863058725947494 0.47863058725947494
4
 -0.5378791670651732 0.5378791670651732
 0.5378791670651732 -0.5378791670651732
4
 -0.4853220250546828 0.4853220250546828
 0.4853220250546828 -0.4853220250546828
4
 -0.8869132348493138 0.8869132348493138
 0.8869132348493138 -0.8869132348493138
4
 -0.21955035287593194 0.21955035287593194
 0.21955035287593194 -0.21955035287593194
4
 -0.6721193271093868 0.6721193271093868
 0.6721193271093868 -0.6721193271093868
4
 -0.06160082174492176 0.06160082174492176
 0.06160082174492176 -0.06160082174492176
4
 0.5345049085282243 -0.5345049085282243
 -0.5345049085282243 0.5345049085282243
4
 -0.5970793651837785 0.5970793651837785
 0.5970793651837785 -0.5970793651837785
4
 0.35027332146547385 -0.35027332146547385
 -0.35027332146547385 0.35027332146547385
4
 -0.6386517651027477 0.6386517651027477
 0.6386517651027477 -0.6386517651027477
4
 0.34819253958098284 -0.34819253958098284
 -0.34819253958098284 0.34819253958098284
4
 -0.03734641070891431 0.03734641070891431
 0.03734641070891431 -0.03734641070891431
4
 -0.8985356456632296 0.8985356456632296
 0.8985356456632296 -0.8985356456632296
4
 -0.18705543593991725 0.18705543593991725
 0.18705543593991725 -0.18705543593991725
4
 0.4028674197515696 -0.4028674197515696
 -0.4028674197515696 0.4028674197515696
4
 0.0368685426536286 -0.0368685426536286
 -0.0368685426536286 0.0368685426536286
4
 -0.04999090152505192 0.04999090152505192
 0.04999090152505192 -0.04999090152505192
4
 -0.7185697648864822 0.7185697648864822
 0.7185697648864822 -0.7185697648864822
4
 -0.7982673673177585 0.7982673673177585
 0.7982673673177585 -0.7982673673177585
4
 -0.23302699935853055 0.23302699935853055
 0.23302699935853055 -0.23302699935853055
4
 -0.9373536010116761 0.9373536010116761
 0.9373536010116761 -0.9373536010116761
4
 0.6932336870527254 -0.6932336870527254
 -0.6932336870527254 0.6932336870527254
4
 -0.1686056237288216 0.1686056237288216
 0.1686056237288216 -0.1686056237288216
4
 0.9538707714386847 -0.9538707714386847
 -0.9538707714386847 0.9538707714386847
4
 0.8860358388161014 -0.8860358388161014
 -0.8860358388161014 0.8860358388161014
4
 0.7558999808704294 -0.7558999808704294
 -0.7558999808704294 0.7558999808704294
4
 0.818294499629614 -0.818294499629614
 -0.818294499629614 0.818294499629614
4
 -0.4951289293059413 0.4951289293059413
 0.4951289293059413 -0.4951289293059413
4
 -0.14639140622463342 0.14639140622463342
 0.14639140622463342 -0.14639140622463342
4
 -0.1999168876510251 0.1999168876510251
 0.1999168876510251 -0.1999168876510251
4
 -0.43243524428012003 0.43243524428012003
 0.43243524428012003 -0.43243524428012003
4
 -0.6419620277858678 0.6419620277858678
 0.6419620277858678 -0.6419620277858678
4
 -0.8313626031221624 0.8313626031221624
 0.8313626031221624 -0.8313626031221624
4
 0.21857415672400027 -0.21857415672400027
 -0.21857415672400027 0.21857415672400027
4
 -0.6384417384880137 0.6384417384880137
 0.6384417384880137 -0.6384417384880137
4
 -0.5444063330268205 0.5444063330268205
 0.5444063330268205 -0.5444063330268205
4
 0.8201654969487251 -0.8201654969487251
 -0.8201654969487251 0.8201654969487251
4
 0.7457586339515623 -0.7457586339515623
 -0.7457586339515623 0.7457586339515623
4
 0.16081719806838768 -0.16081719806838768
 -0.16081719806838768 0.16081719806838768
4
 0.420376972937055 -0.420376972937055
 -0.420376972937055 0.420376972937055
4
 0.23483821922740344 -0.23483821922740344
 -0.23483821922740344 0.23483821922740344
4
 -0.6654272250504629 0.6654272250504629
 0.6654272250504629 -0.6654272250504629
4
 0.39111642340660313 -0.39111642340660313
 -0.39111642340660313 0.39111642340660313
4
 0.48134811760715523 -0.48134811760715523
 -0.48134811760715523 0.48134811760715523
4
 -0.09705189518308854 0.09705189518308854
 0.09705189518308854 -0.09705189518308854
4
 0.8234885291071203 -0.8234885291071203
 -0.8234885291071203 0.8234885291071203
4
 -0.16865566341522586 0.16865566341522586
 0.16865566341522586 -0.16865566341522586
4
 -0.48882631337497306 0.48882631337497306
 0.48882631337497306 -0.48882631337497306
4
 0.6883698486177825 -0.6883698486177825
 -0.6883698486177825 0.6883698486177825
4
 0.45169262215973793 -0.45169262215973793
 -0.45169262215973793 0.45169262215973793
4
 -0.2761614942340851 0.2761614942340851
 0.2761614942340851 -0.2761614942340851
4
 -0.5214628397439576 0.5214628397439576
 0.5214628397439576 -0.5214628397439576
4
 -0.4775350054515881 0.4775350054515881
 0.4775350054515881 -0.4775350054515881
4
 0.10394307145370263 -0.10394307145370263
 -0.10394307145370263 0.10394307145370263
4
 0.6964992130384211 -0.6964992130384211
 -0.6964992130384211 0.6964992130384211
4
 -0.1655409100900178 0.1655409100900178
 0.1655409100900178 -0.1655409100900178
4
 0.9279804312179363 -0.9279804312179363
 -0.9279804312179363 0.9279804312179363
4
 0.33343031831549896 -0.33343031831549896
 -0.33343031831549896 0.33343031831549896
4
 0.07010538761448681 -0.07010538761448681
 -0.07010538761448681 0.07010538761448681
4
 0.028831038115305407 -0.028831038115305407
 -0.028831038115305407 0.028831038115305407
4
 0.13622972928103305 -0.13622972928103305
 -0.13622972928103305 0.13622972928103305
4
 -0.26093899332910975 0.26093899332910975
 0.26093899332910975 -0.26093899332910975
4
 0.6918751549407545 -0.6918751549407545
 -0.6918751549407545 0.6918751549407545
4
 0.9721516953855596 -0.9721516953855596
 -0.9721516953855596 0.9721516953855596
4
 -0.0009349636024766905 0.0009349636024766905
 0.0009349636024766905 -0.0009349636024766905
4
 0.13621335573019833 -0.13621335573019833
 -0.13621335573019833 0.13621335573019833
4
 0.34834141499230165 -0.34834141499230165
 -0.34834141499230165 0.34834141499230165
4
 0.7678774085954874 -0.7678774085954874
 -0.7678774085954874 0.7678774085954874
4
 0.22224838265601932 -0.22224838265601932
 -0.22224838265601932 0.22224838265601932
4
 -0.037506314011089614 0.037506314011089614
 0.037506314011089614 -0.037506314011089614
4
 -0.9072354426336893 0.9072354426336893
 0.9072354426336893 -0.9072354426336893
4
 0.9140581520527586 -0.9140581520527586
 -0.9140581520527586 0.9140581520527586
4
 0.9311198159854217 -0.9311198159854217
 -0.9311198159854217 0.9311198159854217
4
 -0.9060131159864526 0.9060131159864526
 0.9060131159864526 -0.9060131159864526
4
 0.6621039947804899 -0.6621039947804899
 -0.6621039947804899 0.6621039947804899
4
 0.23649685911036822 -0.23649685911036822
 -0.23649685911036822 0.23649685911036822
4
 0.3141812117605052 -0.3141812117605052
 -0.3141812117605052 0.3141812117605052
4
 -0.33020511296872845 0.33020511296872845
 0.33020511296872845 -0.33020511296872845
4
 0.281462404280135 -0.281462404280135
 -0.281462404280135 0.281462404280135
4
 -0.36827006203374046 0.36827006203374046
 0.36827006203374046 -0.36827006203374046
